
Gurobi 7.0.2 (win64) logging started 06/24/20 00:26:10

Read LP format model from file C:\George\Professor\Pesquisa\Orientacoes em Pos-graduacao\2019 MSC PPGCC Guilherme Figueroa\Fanjuls Solver\Results\I_50_30_S_1-9_4_MTZ_KB.lp
Reading time = 0.31 seconds
: 5660 rows, 78051 columns, 314030 nonzeros
Optimize a model with 5660 rows, 78051 columns and 314030 nonzeros
Variable types: 1551 continuous, 76500 integer (76500 binary)
Coefficient statistics:
  Matrix range     [1e+00, 1e+02]
  Objective range  [1e+00, 1e+00]
  Bounds range     [1e+00, 1e+00]
  RHS range        [1e+00, 5e+01]
Found heuristic solution: objective 301
Presolve time: 0.42s
Presolved: 5660 rows, 78051 columns, 314030 nonzeros
Variable types: 50 continuous, 78001 integer (78000 binary)

Root simplex log...

Iteration    Objective       Primal Inf.    Dual Inf.      Time
   11283    2.0139074e-04   1.627542e+03   0.000000e+00      5s
   17670    1.0517026e+01   0.000000e+00   0.000000e+00      7s

Root relaxation: objective 1.051703e+01, 17670 iterations, 6.83 seconds

    Nodes    |    Current Node    |     Objective Bounds      |     Work
 Expl Unexpl |  Obj  Depth IntInf | Incumbent    BestBd   Gap | It/Node Time

     0     0   10.51703    0  271  301.00000   10.51703  96.5%     -    7s
H    0     0                      22.0000000   10.51703  52.2%     -   13s
     0     0   10.77761    0  286   22.00000   10.77761  51.0%     -   13s
     0     0   10.77761    0  237   22.00000   10.77761  51.0%     -   14s
H    0     0                      21.0000000   10.77761  48.7%     -   14s
     0     0   11.05432    0  272   21.00000   11.05432  47.4%     -   15s
     0     0   11.08011    0  254   21.00000   11.08011  47.2%     -   15s
     0     0   12.00000    0  275   21.00000   12.00000  42.9%     -   15s
H    0     0                      20.0000000   12.00000  40.0%     -   15s
     0     0   12.00000    0  274   20.00000   12.00000  40.0%     -   15s
     0     0   12.11937    0  296   20.00000   12.11937  39.4%     -   15s
     0     0   12.19887    0  293   20.00000   12.19887  39.0%     -   15s
     0     0   12.63158    0  279   20.00000   12.63158  36.8%     -   15s
     0     0   12.63158    0  266   20.00000   12.63158  36.8%     -   15s
     0     0   12.63158    0  288   20.00000   12.63158  36.8%     -   15s
H    0     0                      19.0000000   12.63158  33.5%     -   15s
     0     0   12.63158    0  278   19.00000   12.63158  33.5%     -   15s
     0     0   12.63158    0  207   19.00000   12.63158  33.5%     -   16s
     0     0   12.63158    0  249   19.00000   12.63158  33.5%     -   16s
     0     0   12.63158    0  196   19.00000   12.63158  33.5%     -   16s
H    0     0                      18.0000000   12.63158  29.8%     -   16s
     0     0   12.80000    0  252   18.00000   12.80000  28.9%     -   16s
     0     0   13.00000    0  112   18.00000   13.00000  27.8%     -   16s
     0     0   13.00000    0  163   18.00000   13.00000  27.8%     -   16s
     0     0   13.00000    0  206   18.00000   13.00000  27.8%     -   16s
     0     0   13.00000    0  150   18.00000   13.00000  27.8%     -   16s
     0     0   13.00000    0  102   18.00000   13.00000  27.8%     -   17s
H    0     0                      17.0000000   13.00000  23.5%     -   17s
     0     0   13.00000    0  213   17.00000   13.00000  23.5%     -   17s
     0     0   13.00000    0  207   17.00000   13.00000  23.5%     -   17s
     0     0   13.00000    0  203   17.00000   13.00000  23.5%     -   17s
     0     2   13.00000    0  163   17.00000   13.00000  23.5%     -   18s
    55    47   14.00000   40  197   17.00000   13.00000  23.5%   107   20s
H  299   173                      16.0000000   13.00000  18.7%  63.2   22s
   518   257   14.00000   31  214   16.00000   14.00000  12.5%  60.7   25s
   690   269   15.00000   36  131   16.00000   15.00000  6.25%  99.2   30s
  1126   149 infeasible   40        16.00000   15.00000  6.25%  89.7   35s
  1602   115   15.00000   39  144   16.00000   15.00000  6.25%  86.0   40s
  2230   156 infeasible   45        16.00000   15.00000  6.25%  81.1   45s
  2823   151   15.00000   34  112   16.00000   15.00000  6.25%  77.7   50s
  3388   128   15.00000   40  118   16.00000   15.00000  6.25%  76.1   55s
  3923   120 infeasible   48        16.00000   15.00000  6.25%  75.1   60s
  4572   111 infeasible   42        16.00000   15.00000  6.25%  73.0   65s
  5127    80   15.00000   34  145   16.00000   15.00000  6.25%  72.5   70s
  5780    31 infeasible   42        16.00000   15.00000  6.25%  71.0   75s
  6466    37   15.00000   39  120   16.00000   15.00000  6.25%  70.0   80s
  7140    35   15.00000   42  153   16.00000   15.00000  6.25%  69.0   85s
  7739    17 infeasible   48        16.00000   15.00000  6.25%  68.8   90s
  8300     3 infeasible   44        16.00000   15.00000  6.25%  69.4   95s

Cutting planes:
  Gomory: 1
  Cover: 4
  Clique: 29
  MIR: 6
  Flow cover: 4
  GUB cover: 4
  Inf proof: 3
  Zero half: 2

Explored 8316 nodes (596979 simplex iterations) in 95.30 seconds
Thread count was 1 (of 12 available processors)

Solution count 8: 16 17 18 ... 301
Pool objective bound 16

Optimal solution found (tolerance 0.00e+00)
Best objective 1.600000000000e+01, best bound 1.600000000000e+01, gap 0.0000%
